 vasp.5.4.1 24Jun15 (build Nov 28 2018 15:56:34) complex

 executed on           IFC91_ompi date 2024.05.07  12:10:22

 INCAR:
 POTCAR:    PAW_PBE Mo 08Apr2002
 POTCAR:    PAW_PBE S 06Sep2000
 POTCAR:    PAW_PBE Se 06Sep2000
 POTCAR:    PAW_PBE W 08Apr2002
 POTCAR:    PAW_PBE Mo 08Apr2002
   VRHFIN =Mo: 4p5s4d

   TITEL  = PAW_PBE Mo 08Apr2002
   POMASS =   95.940; ZVAL   =    6.000    mass and valenz
   ENMAX  =  224.584; ENMIN  =  168.438 eV

 POTCAR:    PAW_PBE S 06Sep2000
   VRHFIN =S : s2p4

   TITEL  = PAW_PBE S 06Sep2000
   POMASS =   32.066; ZVAL   =    6.000    mass and valenz
   ENMAX  =  258.689; ENMIN  =  194.016 eV

 POTCAR:    PAW_PBE Se 06Sep2000
   VRHFIN =Se: s2p4

   TITEL  = PAW_PBE Se 06Sep2000
   POMASS =   78.960; ZVAL   =    6.000    mass and valenz
   ENMAX  =  211.555; ENMIN  =  158.666 eV

 POTCAR:    PAW_PBE W 08Apr2002
   VRHFIN =W : 6s5d

   TITEL  = PAW_PBE W 08Apr2002
   POMASS =  183.850; ZVAL   =    6.000    mass and valenz
   ENMAX  =  223.057; ENMIN  =  167.293 eV

  PAW_PBE Mo 08Apr2002                  :
  PAW_PBE S 06Sep2000                   :
  PAW_PBE Se 06Sep2000                  :
  PAW_PBE W 08Apr2002                   :

 POSCAR: Mo  S Se  W
  positions in direct lattice
 exchange correlation table for  LEXCH =        8
   RHO(1)=    0.500       N(1)  =     2000
   RHO(2)=  100.500       N(2)  =     4000

 ion  position               nearest neighbor table
   1  0.642  0.361  0.204-   4 2.31   4 2.31   4 2.31   3 2.32   3 2.32   3 2.32
   2  0.673  0.323  0.809-   8 2.41   8 2.41   8 2.41   7 2.41   7 2.41   7 2.41
   3  0.976  0.028  0.163-   1 2.32   1 2.32   1 2.32
   4  0.976  0.028  0.244-   1 2.31   1 2.31   1 2.31
   5  0.676  0.326  0.401-   9 2.35   9 2.35   9 2.35
   6  0.676  0.326  0.484-   9 2.35   9 2.35   9 2.35
   7  0.006  0.990  0.765-   2 2.41   2 2.41   2 2.41
   8  0.006  0.990  0.853-   2 2.41   2 2.41   2 2.41
   9  0.009  0.992  0.442-   6 2.35   6 2.35   6 2.35   5 2.35   5 2.35   5 2.35

  LATTYP: Found a hexagonal cell.
 ALAT       =     3.1850000770
 C/A-ratio  =    10.9890107232

  Lattice vectors:

 A1 = (   3.1850000000,   0.0000000000,   0.0000000000)
 A2 = (  -1.5925000000,   2.7582910000,   0.0000000000)
 A3 = (   0.0000000000,   0.0000000000,  35.0000000000)

Analysis of symmetry for initial positions (statically):
 Subroutine PRICEL returns:
 Original cell was already a primitive cell.

 Routine SETGRP: Setting up the symmetry group for a
 hexagonal supercell.

 Subroutine GETGRP returns: Found  1 space group operations
 (whereof  1 operations were pure point group operations)
 out of a pool of 24 trial point group operations.

The static configuration has the point symmetry C_1 .

Analysis of symmetry for dynamics (positions and initial velocities):
 Subroutine PRICEL returns:
 Original cell was already a primitive cell.

 Routine SETGRP: Setting up the symmetry group for a
 hexagonal supercell.

 Subroutine GETGRP returns: Found  1 space group operations
 (whereof  1 operations were pure point group operations)
 out of a pool of 24 trial point group operations.

The dynamic configuration has the point symmetry C_1 .

 KPOINTS: K-mesh

Automatic generation of k-mesh.
Space group operators:
 irot       det(A)        alpha          n_x          n_y          n_z        tau_x        tau_y        tau_z
    1     1.000000     0.000001     1.000000     0.000000     0.000000     0.000000     0.000000     0.000000

 Subroutine IBZKPT returns following result:

 Found      1 irreducible k-points:

 Following reciprocal coordinates:
            Coordinates               Weight
  0.000000  0.000000  0.000000      1.000000

 Following cartesian coordinates:
            Coordinates               Weight
  0.000000  0.000000  0.000000      1.000000

 I would recommend the setting:
   dimension x,y,z NGX =    17 NGY =   17 NGZ =  184
 SYSTEM =  unknown system
 POSCAR =  Mo  S Se  W

 Startparameter for this run:
   NWRITE =      2    write-flag & timer
   PREC   = accura    normal or accurate (medium, high low for compatibility)
   ISTART =      0    job   : 0-new  1-cont  2-samecut
   ICHARG =      2    charge: 1-file 2-atom 10-const
   ISPIN  =      1    spin polarized calculation?
   LNONCOLLINEAR =      F non collinear calculations
   LSORBIT =      F    spin-orbit coupling
   INIWAV =      1    electr: 0-lowe 1-rand  2-diag
   LASPH  =      F    aspherical Exc in radial PAW
   METAGGA=      F    non-selfconsistent MetaGGA calc.

 Electronic Relaxation 1
   ENCUT  =  258.7 eV  19.01 Ry    4.36 a.u.   4.18  4.18 45.90*2*pi/ulx,y,z
   ENINI  =  258.7     initial cutoff
   ENAUG  =  446.8 eV  augmentation charge cutoff
   NELM   =    120;   NELMIN=  2; NELMDL= -5     # of ELM steps
   EDIFF  = 0.1E-05   stopping-criterion for ELM
   LREAL  =      F    real-space projection
   NLSPLINE    = F    spline interpolate recip. space projectors
   LCOMPAT=      F    compatible to vasp.4.4
   GGA_COMPAT  = T    GGA compatible to vasp.4.4-vasp.4.6
   LMAXPAW     = -100 max onsite density
   LMAXMIX     =    2 max onsite mixed and CHGCAR
   VOSKOWN=      0    Vosko Wilk Nusair interpolation
   ROPT   =    0.00000   0.00000   0.00000   0.00000
 Ionic relaxation
   EDIFFG = 0.1E-04   stopping-criterion for IOM
   NSW    =      0    number of steps for IOM
   NBLOCK =      1;   KBLOCK =      1    inner block; outer block
   IBRION =     -1    ionic relax: 0-MD 1-quasi-New 2-CG
   NFREE  =      0    steps in history (QN), initial steepest desc. (CG)
   ISIF   =      2    stress and relaxation
   IWAVPR =     10    prediction:  0-non 1-charg 2-wave 3-comb
   ISYM   =      2    0-nonsym 1-usesym 2-fastsym
   LCORR  =      T    Harris-Foulkes like correction to forces

   POTIM  = 0.5000    time-step for ionic-motion
   TEIN   =    0.0    initial temperature
   TEBEG  =    0.0;   TEEND  =   0.0 temperature during run
   SMASS  =  -3.00    Nose mass-parameter (am)
   estimated Nose-frequenzy (Omega)   =  0.10E-29 period in steps =****** mass=  -0.232E-27a.u.
   SCALEE = 1.0000    scale energy and forces
   NPACO  =    256;   APACO  = 16.0  distance and # of slots for P.C.
   PSTRESS=    0.0 pullay stress

  Mass of Ions in am
   POMASS =  95.94 32.07 78.96183.85
  Ionic Valenz
   ZVAL   =   6.00  6.00  6.00  6.00
  Atomic Wigner-Seitz radii
  virtual crystal weights
   VCA    =   1.00  1.00  1.00  1.00
   NELECT =      54.0000    total number of electrons
   NUPDOWN=      -1.0000    fix difference up-down

 DOS related values:
   EMIN   =  10.00;   EMAX   =-10.00  energy-range for DOS
   EFERMI =   0.00
   ISMEAR =     1;   SIGMA  =   0.20  broadening in eV -4-tet -1-fermi 0-gaus

 Electronic relaxation 2 (details)
   IALGO  =     38    algorithm
   LDIAG  =      T    sub-space diagonalisation (order eigenvalues)
   LSUBROT=      F    optimize rotation matrix (better conditioning)
   TURBO    =      0    0=normal 1=particle mesh
   IRESTART =      0    0=no restart 2=restart with 2 vectors
   NREBOOT  =      0    no. of reboots
   NMIN     =      0    reboot dimension
   EREF     =   0.00    reference energy to select bands
   IMIX   =      4    mixing-type and parameters
     AMIX     =   0.40;   BMIX     =  1.00
     AMIX_MAG =   1.60;   BMIX_MAG =  1.00
     AMIN     =   0.10
     WC   =   100.;   INIMIX=   1;  MIXPRE=   1;  MAXMIX= -45

 Intra band minimization:
   WEIMIN = 0.0000     energy-eigenvalue tresh-hold
   EBREAK =  0.64E-09  absolut break condition
   DEPER  =   0.30     relativ break condition

   TIME   =   0.40     timestep for ELM

  volume/ion in A,a.u.               =      34.16       230.55
  Fermi-wavevector in a.u.,A,eV,Ry     =   0.916784  1.732470 11.435593  0.840492
  Thomas-Fermi vector in A             =   2.041678

 Write flags
   LWAVE  =      T    write WAVECAR
   LCHARG =      T    write CHGCAR
   LVTOT  =      F    write LOCPOT, total local potential
   LVHAR  =      F    write LOCPOT, Hartree potential only
   LELF   =      F    write electronic localiz. function (ELF)
   LORBIT =     11    0 simple, 1 ext, 2 COOP (PROOUT)

 Dipole corrections
   LMONO  =      F    monopole corrections only (constant potential shift)
   LDIPOL =      F    correct potential (dipole corrections)
   IDIPOL =      0    1-x, 2-y, 3-z, 4-all directions
   EPSILON=  1.0000000 bulk dielectric constant

 Exchange correlation treatment:
   GGA     =    --    GGA type
   VOSKOWN=      0    Vosko Wilk Nusair interpolation
   LHFCALC =     F    Hartree Fock is set to
   LHFONE  =     F    Hartree Fock one center treatment
   AEXX    =    0.0000 exact exchange contribution

 Linear response parameters
   LEPSILON=     F    determine dielectric tensor
   LRPA    =     F    only Hartree local field effects (RPA)
   LNABLA  =     F    use nabla operator in PAW spheres
   LVEL    =     F    velocity operator in full k-point grid
   LINTERFAST=   F  fast interpolation
   KINTER  =     0    interpolate to denser k-point grid
   CSHIFT  =0.1000    complex shift for real part using Kramers Kronig
   OMEGAMAX=  -1.0    maximum frequency
   DEG_THRESHOLD= 0.2000000E-02 threshold for treating states as degnerate
   RTIME   =    0.100 relaxation time in fs

 Orbital magnetization related:
   ORBITALMAG=     F  switch on orbital magnetization
   LCHIMAG   =     F  perturbation theory with respect to B field
   DQ        =  0.001000  dq finite difference perturbation B field

 Static calculation
 charge density and potential will be updated during run
 non-spin polarized calculation
 Variant of blocked Davidson
 Davidson routine will perform the subspace rotation
 perform sub-space diagonalisation
    after iterative eigenvector-optimisation
 modified Broyden-mixing scheme, WC =      100.0
 initial mixing is a Kerker type mixing with AMIX =  0.4000 and BMIX =      1.0000
 Hartree-type preconditioning will be used
 using additional bands          361
 reciprocal scheme for non local part
 use partial core corrections
 calculate Harris-corrections to forces
   (improved forces if not selfconsistent)
 use gradient corrections
 use of overlap-Matrix (Vanderbilt PP)
 Methfessel and Paxton  Order N= 1 SIGMA  =   0.20

  energy-cutoff  :      258.69
  volume of cell :      307.48
      direct lattice vectors                 reciprocal lattice vectors
     3.185000000  0.000000000  0.000000000     0.313971743  0.181271664  0.000000000
    -1.592500000  2.758291000  0.000000000     0.000000000  0.362543328  0.000000000
     0.000000000  0.000000000 35.000000000     0.000000000  0.000000000  0.028571429

  length of vectors
     3.185000000  3.185000077 35.000000000     0.362543337  0.362543328  0.028571429

 k-points in units of 2pi/SCALE and weight: K-mesh
   0.00000000  0.00000000  0.00000000       1.000

 k-points in reciprocal lattice and weights: K-mesh
   0.00000000  0.00000000  0.00000000       1.000

 position of ions in fractional coordinates (direct lattice)
   0.64217973  0.36110163  0.20381795
   0.67295760  0.32335296  0.80905281
   0.97550397  0.02776841  0.16347535
   0.97551172  0.02778320  0.24395995
   0.67602776  0.32562660  0.40051633
   0.67604990  0.32560907  0.48392908
   0.00629245  0.99002344  0.76452782
   0.00629335  0.99001344  0.85344193
   0.00936429  0.99229376  0.44227026

 position of ions in cartesian coordinates  (Angst):
   1.47028809  0.99602338  7.13362825
   1.62843037  0.89190156 28.31684835
   3.06275895  0.07659336  5.72163725
   3.06276008  0.07663415  8.53859825
   1.63458806  0.89817292 14.01807155
   1.63468649  0.89812457 16.93751780
  -1.55657087  2.73077274 26.75847370
  -1.55655208  2.73074516 29.87046755
  -1.55040255  2.73703495 15.47945910

 k-point  1 :   0.0000 0.0000 0.0000  plane waves:    2881

 maximum and minimum number of plane-waves per node :      2881     2881

 maximum number of plane-waves:      2881
 maximum index in each direction:
   IXMAX=    4   IYMAX=    4   IZMAX=   45
   IXMIN=   -4   IYMIN=   -4   IZMIN=  -45

 NGX is ok and might be reduce to  18
 NGY is ok and might be reduce to  18
 NGZ is ok and might be reduce to 182

 serial   3D FFT for wavefunctions
 parallel 3D FFT for charge:
    minimum data exchange during FFTs selected (reduces bandwidth)

 Broyden mixing: mesh for mixing (old mesh)
   NGX =  9   NGY =  9   NGZ = 91
  (NGX  = 36   NGY  = 36   NGZ  =384)
  gives a total of   7371 points

 initial charge density was supplied:
 charge density of overlapping atoms calculated
 number of electron      54.0000000 magnetization
 keeping initial charge density in first step

 Maximum index for augmentation-charges        12604 (set IRDMAX)

 First call to EWALD:  gamma=   0.263
 Maximum number of real-space cells 6x 6x 1
 Maximum number of reciprocal cells 2x 2x12

 FEWALD executed in parallel

----------------------------------------- Iteration    1(   1)  ---------------------------------------

 eigenvalue-minimisations  :   784
 total energy-change (2. order) : 0.2346996E+03  (-0.5648552E+03)
 number of electron      54.0000000 magnetization
 augmentation part       54.0000000 magnetization

 Free energy of the ion-electron system (eV)
  alpha Z        PSCENC =        99.60307510
  Ewald energy   TEWEN  =      2862.10097504
  -Hartree energ DENC   =     -5091.03038932
  -exchange      EXHF   =         0.00000000
  -V(xc)+E(xc)   XCENC  =      -119.41640827
  PAW double counting   =      2063.56787816    -1821.78880493
  entropy T*S    EENTRO =         0.02548565
  eigenvalues    EBANDS =       -19.37224899
  atomic energy  EATOM  =      2261.01001458
  Solvation  Ediel_sol  =         0.00000000
  free energy    TOTEN  =       234.69957702 eV

  energy without entropy =      234.67409137  energy(sigma->0) =      234.69108180

[...]

 eigenvalue-minimisations  :   944
 total energy-change (2. order) :-0.2701278E+03  (-0.2378175E+03)
 number of electron      54.0000000 magnetization
 augmentation part       54.0000000 magnetization

[...]

 Broyden mixing:
  rms(total) = 0.45611E+01    rms(broyden)= 0.45608E+01
  rms(prec ) = 0.45759E+01
  weight for this iteration     100.00

[...]

 eigenvalues of (default mixing * dielectric matrix)
  average eigenvalue GAMMA=   1.8132
  1.8132

[...]

 eigenvalue-minimisations  :   888
 total energy-change (2. order) :-0.2168046E-02  ( 0.5108235E-03)
 number of electron      54.0000005 magnetization
 augmentation part       -1.9722404 magnetization

[...]

 eigenvalue-minimisations  :   936
 total energy-change (2. order) : 0.4340680E-02  ( 0.8631637E-03)
 number of electron      54.0000005 magnetization
 augmentation part       -1.9739971 magnetization

[...]

 Broyden mixing:
  rms(total) = 0.29249E-02    rms(broyden)= 0.18140E-02
  rms(prec ) = 0.25391E-02
  weight for this iteration     100.00
  WARNING: grid for Broyden might be to small

[...]

 Broyden mixing:
  rms(total) = 0.66528E-02    rms(broyden)= 0.55735E-02
  rms(prec ) = 0.10757E-01
  weight for this iteration     100.00
  WARNING: grid for Broyden might be to small

[...]

 eigenvalue-minimisations  :   960
 total energy-change (2. order) :-0.1021714E-03  (-0.3988397E-09)
 number of electron      54.0000005 magnetization
 augmentation part       -1.9719675 magnetization

 Broyden mixing:
  rms(total) = 0.16489E-02    rms(broyden)= 0.16489E-02
  rms(prec ) = 0.32094E-02
  weight for this iteration     100.00

 eigenvalues of (default mixing * dielectric matrix)
  average eigenvalue GAMMA=   3.2087
 79.1048  7.5806  3.8764  3.8764  3.5824  2.9385  2.9385  1.8871  1.8871  2.6860
  2.3044  2.3044  2.0268  2.0268  2.0347  1.6169  1.6169  0.2540  0.2540  0.0011
  1.1076  1.1076  0.1563  0.6618  0.6618  0.4988  0.4988  0.9684  0.9684  1.0080
  0.9626  0.9626  0.2364  0.5647  0.5647  0.4067  0.7717  0.5699  0.5699  0.7224
  0.6582  0.6582  0.5741  0.5273

[...]

----------------------------------------- Iteration    1( 120)  ---------------------------------------

 eigenvalue-minimisations  :   984
 total energy-change (2. order) : 0.1073337E-03  (-0.4447693E-09)
 number of electron      54.0000005 magnetization
 augmentation part       -1.9719675 magnetization

 Free energy of the ion-electron system (eV)
  alpha Z        PSCENC =        99.60307510
  Ewald energy   TEWEN  =      2862.10097504
  -Hartree energ DENC   =     -5091.29967082
  -exchange      EXHF   =         0.00000000
  -V(xc)+E(xc)   XCENC  =      -116.42600645
  PAW double counting   =      5872.79936062    -5635.93083495
  entropy T*S    EENTRO =         0.02534486
  eigenvalues    EBANDS =      -293.81646512
  atomic energy  EATOM  =      2261.01001458
  Solvation  Ediel_sol  =         0.00000000
  free energy    TOTEN  =       -41.93420714 eV

  energy without entropy =      -41.95955199  energy(sigma->0) =      -41.94265542

 average (electrostatic) potential at core
  the test charge radii are     1.2296  0.9698  1.0808  1.1823
  (the norm of the test charge is              1.0000)
       1 -42.0539       2 -41.1227       3 -92.6441       4 -92.6410       5 -92.4374
       6 -92.4399       7 -59.3452       8 -59.3399       9 -44.0359

 E-fermi :   0.7257     XC(G=0):  -6.5470     alpha+bet : -6.2607

 k-point     1 :       0.0000    0.0000    0.0000
  band No.  band energies     occupation
      1     -15.7807      2.00000
      2     -15.7232      2.00000
      3     -15.5136      2.00000
      4     -14.6945      2.00000
      5     -13.9730      2.00000
      6     -13.9529      2.00000
      7      -6.7846      2.00000
      8      -6.5392      2.00000
      9      -6.1617      2.00000
     10      -3.8984      2.00000
     11      -3.8983      2.00000
     12      -3.6041      2.00000
     13      -3.6040      2.00000
     14      -2.5782      2.00000
     15      -2.5778      2.00000
     16      -2.4597      2.00000
     17      -2.4596      2.00000
     18      -2.3382      2.00000
     19      -2.3377      2.00000
     20      -2.3150      2.00000
     21      -2.1957      2.00000
     22      -1.9589      2.00000
     23      -1.4036      2.00000
     24      -1.4035      2.00000
     25       0.1591      2.00046
     26       0.5106      2.06258
     27       0.5805      1.93696
     28       2.2928     -0.00000
     29       2.2932     -0.00000
     30       2.6678     -0.00000
     31       2.6684     -0.00000
     32       2.8176     -0.00000
     33       2.8178     -0.00000
     34       3.0131     -0.00000
     35       3.0133     -0.00000
     36       3.0155     -0.00000
     37       3.0156     -0.00000
     38       3.3864     -0.00000
     39       3.3864     -0.00000
     40       4.9334     -0.00000
     41       5.4020     -0.00000
     42       5.4258     -0.00000
     43       5.7160     -0.00000
     44       5.9254     -0.00000
     45       6.0820     -0.00000
     46       6.2470      0.00000
     47       6.7026      0.00000
     48       8.1076      0.00000
     49       8.3149      0.00000
     50       8.4891      0.00000
     51       8.5677      0.00000
     52       8.7035      0.00000
     53       9.4744      0.00000
     54       9.8980      0.00000
     55       9.8990      0.00000
     56       9.9009      0.00000
     57       9.9016      0.00000
     58      10.3016      0.00000
     59      10.5702      0.00000
     60      10.5702      0.00000
[...]
    374      61.2097      0.00000
    375      61.2265      0.00000
    376      61.3748      0.00000
    377      61.4896      0.00000
    378      61.5249      0.00000
    379      61.6393      0.00000
    380      61.8451      0.00000
    381      62.0435      0.00000
    382      62.1212      0.00000
    383      62.1634      0.00000
    384      62.1841      0.00000
    385      62.3674      0.00000
    386      62.4705      0.00000
    387      62.5020      0.00000
    388      62.5134      0.00000

 soft charge-density along one line, spin component           1
         0         1         2         3         4         5         6         7         8         9
 total charge-density along one line

------------------------ aborting loop because EDIFF is reached ----------------------------------------

 total charge

# of ion     s       p       d       tot
  1        0.576   0.297   5.247   6.120
  2        0.576   0.291   5.320   6.188
  3        1.247   2.494   0.000   3.741
  4        1.248   2.494   0.000   3.742
  5        1.230   2.526   0.000   3.755
  6        1.229   2.527   0.000   3.757
  7        1.338   2.504   0.119   3.961
  8        1.338   2.505   0.121   3.964
  9        0.717   0.323   5.116   6.156
tot        9.500  15.961  15.923  41.384

  FORCE on cell =-STRESS in cart. coord.  units (eV):
  Direction    XX          YY          ZZ          XY          YZ          ZX
  Alpha Z    99.60308    99.60308    99.60308
  Ewald    4587.19946  4587.18204 -6312.28321    -0.01286     0.00386    -0.00923
  Hartree  4971.39975  4971.39297 -4853.07935    -0.00528     0.00213    -0.00365
  E(xc)    -219.36213  -219.36182  -222.09982     0.00022    -0.00002     0.00012
  Local  -10386.55268-10386.52965 10266.21718     0.01729    -0.00534     0.01070
  n-local   299.27871   299.27954   274.96152     0.00064    -0.00003    -0.00023
  augment   -48.77595   -48.77641   -50.15521     0.00007    -0.00000    -0.00033
  Kinetic   730.66076   730.66044   793.53531    -0.00024     0.00012     0.00035
  Fock        0.00000     0.00000     0.00000     0.00000     0.00000     0.00000
  Total      33.45100    33.45018    -3.30051    -0.00016     0.00072    -0.00228
  in kB     174.30190   174.29763   -17.19782    -0.00085     0.00373    -0.01187

 VOLUME and BASIS-vectors are now :
  energy-cutoff  :      258.69
  volume of cell :      307.48
      direct lattice vectors                 reciprocal lattice vectors
     3.185000000  0.000000000  0.000000000     0.313971743  0.181271664  0.000000000
    -1.592500000  2.758291000  0.000000000     0.000000000  0.362543328  0.000000000
     0.000000000  0.000000000 35.000000000     0.000000000  0.000000000  0.028571429

  length of vectors
     3.185000000  3.185000077 35.000000000     0.362543337  0.362543328  0.028571429

 FORCES acting on ions
    electron-ion (+dipol)            ewald-force                    non-local-force                 convergence-correction
   0.186E-02 -.135E-02 0.347E+03   -.230E-02 0.168E-02 -.347E+03   -.899E-03 0.612E-03 -.479E-01   0.433E-06 -.265E-06 0.129E+00
   -.441E-03 0.199E-03 -.622E+02   0.485E-03 -.194E-03 0.622E+02   0.264E-03 -.865E-04 -.322E-01   -.698E-06 0.429E-06 -.897E-02
   -.803E-03 -.136E-03 0.797E+03   0.113E-02 -.188E-03 -.786E+03   0.136E-03 0.397E-04 -.110E+02   -.278E-06 0.987E-07 0.206E+00
   -.129E-02 0.162E-02 -.102E+03   0.198E-02 -.196E-02 0.905E+02   -.178E-03 -.437E-03 0.112E+02   0.439E-06 -.140E-06 0.505E-01
   -.123E-03 -.166E-03 0.155E+03   -.853E-03 0.715E-03 -.146E+03   0.423E-03 -.109E-03 -.805E+01   -.694E-06 0.390E-06 -.642E-01
   0.299E-02 -.167E-02 -.725E+03   -.286E-02 0.162E-02 0.717E+03   -.152E-02 0.880E-03 0.816E+01   0.672E-06 -.383E-06 -.220E+00
   -.131E-03 0.302E-03 0.364E+03   -.343E-05 -.253E-03 -.356E+03   0.732E-04 -.121E-03 -.715E+01   -.365E-06 0.182E-06 -.177E+00
   0.393E-03 -.417E-03 -.488E+03   -.481E-03 0.446E-03 0.481E+03   -.155E-03 0.177E-03 0.722E+01   -.429E-06 0.220E-06 0.159E+00
   -.232E-02 0.150E-02 -.285E+03   0.291E-02 -.186E-02 0.285E+03   0.122E-02 -.804E-03 -.374E-01   -.234E-06 0.134E-06 -.142E+00
   0.143E-03 -.114E-03 -.126E+00   0.311E-14 0.747E-13 0.284E-12   -.635E-03 0.151E-03 0.195E+00   -.116E-05 0.667E-06 -.676E-01

 POSITION                                       TOTAL-FORCE (eV/Angst)
      1.47029      0.99602      7.13363        -0.001287      0.000933     -0.105974
      1.62843      0.89190     28.31685         0.000362     -0.000085     -0.074539
      3.06276      0.07659      5.72164         0.000522     -0.000288     -0.072427
      3.06276      0.07663      8.53860         0.000565     -0.000779      0.189709
      1.63459      0.89817     14.01807        -0.000499      0.000436      0.436056
      1.63469      0.89812     16.93752        -0.001332      0.000831     -0.384843
     -1.55657      2.73077     26.75847        -0.000006     -0.000076      0.458373
     -1.55655      2.73075     29.87047        -0.000188      0.000202     -0.384047
     -1.55040      2.73703     15.47946         0.001863     -0.001174     -0.062307
    total drift:                               -0.000493      0.000037      0.001452

  FREE ENERGIE OF THE ION-ELECTRON SYSTEM (eV)
  free  energy   TOTEN  =       -41.93420714 eV

  energy  without entropy=      -41.95955199  energy(sigma->0) =      -41.94265542

 writing wavefunctions

 total charge

# of ion     s       p       d       tot
  1        0.576   0.297   5.247   6.120
  2        0.576   0.291   5.320   6.188
  3        1.247   2.494   0.000   3.741
  4        1.248   2.494   0.000   3.742
  5        1.230   2.526   0.000   3.755
  6        1.229   2.527   0.000   3.757
  7        1.338   2.504   0.119   3.961
  8        1.338   2.505   0.121   3.964
  9        0.717   0.323   5.116   6.156
tot        9.500  15.961  15.923  41.384